(set-logic QF_SLIA)
(declare-fun var0 () String)
(assert (str.in_re var0 (re.++ ((_ re.loop 15 419) (re.++ (re.union (str.to_re "~v<") (re.union (str.to_re "]m") (re.union (str.to_re "d%M") (str.to_re "JZ")))) (re.++ (re.union (str.to_re "u41") (re.union (str.to_re "l") (re.union (str.to_re "Q/m") (str.to_re "d/C")))) (re.++ (re.union (str.to_re "GG:") (re.union (str.to_re "}") (re.union (str.to_re "|.A") (str.to_re "<")))) (re.union (str.to_re "t};") (re.union (str.to_re "[") (re.union (str.to_re "cwW") (str.to_re "`E")))))))) (re.++ ((_ re.loop 9 576) (re.++ (re.union (str.to_re "2vF") (re.union (str.to_re "Wv") (re.union (str.to_re "K") (str.to_re "|b")))) (re.++ (re.union (str.to_re "Ih-") (re.union (str.to_re "Jm") (re.union (str.to_re "f=") (str.to_re "F")))) (re.++ (re.union (str.to_re "5=") (re.union (str.to_re "[#") (re.union (str.to_re "fl") (str.to_re ";8")))) (re.union (str.to_re "D)D") (re.union (str.to_re ">F") (re.union (str.to_re "h") (str.to_re "=")))))))) (re.++ ((_ re.loop 9 394) (re.++ (re.union (str.to_re "U)") (re.union (str.to_re "n") (re.union (str.to_re "7?J") (str.to_re "Sck")))) (re.++ (re.union (str.to_re "K") (re.union (str.to_re "e") (re.union (str.to_re "aE2") (str.to_re ")Y")))) (re.++ (re.union (str.to_re "={:") (re.union (str.to_re "n") (re.union (str.to_re "7Tj") (str.to_re "9")))) (re.union (str.to_re "Hr=") (re.union (str.to_re "bj") (re.union (str.to_re ")7") (str.to_re "|")))))))) ((_ re.loop 7 956) (re.++ (re.union (str.to_re "]U") (re.union (str.to_re "@Ac") (re.union (str.to_re "S") (str.to_re "(hL")))) (re.++ (re.union (str.to_re "l*]") (re.union (str.to_re "-i~") (re.union (str.to_re "Lt") (str.to_re "Yn")))) (re.++ (re.union (str.to_re "G|") (re.union (str.to_re "G") (re.union (str.to_re "zc") (str.to_re "8;'")))) (re.union (str.to_re "!") (re.union (str.to_re "a") (re.union (str.to_re ">") (str.to_re "v")))))))))))))
(assert (not (str.in_re var0 (re.++ ((_ re.loop 12 712) (re.++ (re.union (str.to_re "s") (re.union (str.to_re "{*") (re.union (str.to_re "Y@f") (str.to_re "B*")))) (re.++ (re.union (str.to_re "?[5") (re.union (str.to_re "~9j") (re.union (str.to_re "#") (str.to_re "vt")))) (re.++ (re.union (str.to_re ":H") (re.union (str.to_re "j") (re.union (str.to_re "6,") (str.to_re "\\M|")))) (re.union (str.to_re ",") (re.union (str.to_re "2") (re.union (str.to_re "5\\") (str.to_re "%")))))))) (re.++ ((_ re.loop 20 963) (re.++ (re.union (str.to_re "9H") (re.union (str.to_re "IVw") (re.union (str.to_re "5") (str.to_re "}EM")))) (re.++ (re.union (str.to_re "9") (re.union (str.to_re "2O") (re.union (str.to_re "J") (str.to_re "gc")))) (re.++ (re.union (str.to_re "Z(") (re.union (str.to_re ".L*") (re.union (str.to_re "W&:") (str.to_re "-")))) (re.union (str.to_re "v`m") (re.union (str.to_re "alj") (re.union (str.to_re "U_H") (str.to_re "DHB")))))))) (re.++ ((_ re.loop 8 133) (re.++ (re.union (str.to_re "l#") (re.union (str.to_re "v") (re.union (str.to_re "e") (str.to_re "(H0")))) (re.++ (re.union (str.to_re "425") (re.union (str.to_re "K*") (re.union (str.to_re "AN") (str.to_re "8#9")))) (re.++ (re.union (str.to_re "Rg") (re.union (str.to_re "6v") (re.union (str.to_re "NJu") (str.to_re "HP")))) (re.union (str.to_re "WMl") (re.union (str.to_re "4+") (re.union (str.to_re "Tm") (str.to_re "1]e")))))))) ((_ re.loop 19 541) (re.++ (re.union (str.to_re "yp") (re.union (str.to_re "P") (re.union (str.to_re "\\b'") (str.to_re "frr")))) (re.++ (re.union (str.to_re "Op\\") (re.union (str.to_re "fxT") (re.union (str.to_re "^") (str.to_re "\u0022{")))) (re.++ (re.union (str.to_re "\\") (re.union (str.to_re "fa") (re.union (str.to_re "q[_") (str.to_re "7")))) (re.union (str.to_re "X\u0022") (re.union (str.to_re ".$N") (re.union (str.to_re "|") (str.to_re "zhj"))))))))))))))
(assert (not (str.in_re var0 (re.++ (re.* re.allchar) (re.++ (re.union (str.to_re "<") (re.union (str.to_re ">") (re.union (str.to_re "'") (re.union (str.to_re "\u0022") (str.to_re "&"))))) (re.* re.allchar))))))
(assert (<= 50 (str.len var0)))
(check-sat)
(get-model)
